c Arquivo convertido de bcsstm26.mtx
p edge 1922 1922
e 1 1
e 2 2
e 3 3
e 4 4
e 5 5
e 6 6
e 7 7
e 8 8
e 9 9
e 10 10
e 11 11
e 12 12
e 13 13
e 14 14
e 15 15
e 16 16
e 17 17
e 18 18
e 19 19
e 20 20
e 21 21
e 22 22
e 23 23
e 24 24
e 25 25
e 26 26
e 27 27
e 28 28
e 29 29
e 30 30
e 31 31
e 32 32
e 33 33
e 34 34
e 35 35
e 36 36
e 37 37
e 38 38
e 39 39
e 40 40
e 41 41
e 42 42
e 43 43
e 44 44
e 45 45
e 46 46
e 47 47
e 48 48
e 49 49
e 50 50
e 51 51
e 52 52
e 53 53
e 54 54
e 55 55
e 56 56
e 57 57
e 58 58
e 59 59
e 60 60
e 61 61
e 62 62
e 63 63
e 64 64
e 65 65
e 66 66
e 67 67
e 68 68
e 69 69
e 70 70
e 71 71
e 72 72
e 73 73
e 74 74
e 75 75
e 76 76
e 77 77
e 78 78
e 79 79
e 80 80
e 81 81
e 82 82
e 83 83
e 84 84
e 85 85
e 86 86
e 87 87
e 88 88
e 89 89
e 90 90
e 91 91
e 92 92
e 93 93
e 94 94
e 95 95
e 96 96
e 97 97
e 98 98
e 99 99
e 100 100
e 101 101
e 102 102
e 103 103
e 104 104
e 105 105
e 106 106
e 107 107
e 108 108
e 109 109
e 110 110
e 111 111
e 112 112
e 113 113
e 114 114
e 115 115
e 116 116
e 117 117
e 118 118
e 119 119
e 120 120
e 121 121
e 122 122
e 123 123
e 124 124
e 125 125
e 126 126
e 127 127
e 128 128
e 129 129
e 130 130
e 131 131
e 132 132
e 133 133
e 134 134
e 135 135
e 136 136
e 137 137
e 138 138
e 139 139
e 140 140
e 141 141
e 142 142
e 143 143
e 144 144
e 145 145
e 146 146
e 147 147
e 148 148
e 149 149
e 150 150
e 151 151
e 152 152
e 153 153
e 154 154
e 155 155
e 156 156
e 157 157
e 158 158
e 159 159
e 160 160
e 161 161
e 162 162
e 163 163
e 164 164
e 165 165
e 166 166
e 167 167
e 168 168
e 169 169
e 170 170
e 171 171
e 172 172
e 173 173
e 174 174
e 175 175
e 176 176
e 177 177
e 178 178
e 179 179
e 180 180
e 181 181
e 182 182
e 183 183
e 184 184
e 185 185
e 186 186
e 187 187
e 188 188
e 189 189
e 190 190
e 191 191
e 192 192
e 193 193
e 194 194
e 195 195
e 196 196
e 197 197
e 198 198
e 199 199
e 200 200
e 201 201
e 202 202
e 203 203
e 204 204
e 205 205
e 206 206
e 207 207
e 208 208
e 209 209
e 210 210
e 211 211
e 212 212
e 213 213
e 214 214
e 215 215
e 216 216
e 217 217
e 218 218
e 219 219
e 220 220
e 221 221
e 222 222
e 223 223
e 224 224
e 225 225
e 226 226
e 227 227
e 228 228
e 229 229
e 230 230
e 231 231
e 232 232
e 233 233
e 234 234
e 235 235
e 236 236
e 237 237
e 238 238
e 239 239
e 240 240
e 241 241
e 242 242
e 243 243
e 244 244
e 245 245
e 246 246
e 247 247
e 248 248
e 249 249
e 250 250
e 251 251
e 252 252
e 253 253
e 254 254
e 255 255
e 256 256
e 257 257
e 258 258
e 259 259
e 260 260
e 261 261
e 262 262
e 263 263
e 264 264
e 265 265
e 266 266
e 267 267
e 268 268
e 269 269
e 270 270
e 271 271
e 272 272
e 273 273
e 274 274
e 275 275
e 276 276
e 277 277
e 278 278
e 279 279
e 280 280
e 281 281
e 282 282
e 283 283
e 284 284
e 285 285
e 286 286
e 287 287
e 288 288
e 289 289
e 290 290
e 291 291
e 292 292
e 293 293
e 294 294
e 295 295
e 296 296
e 297 297
e 298 298
e 299 299
e 300 300
e 301 301
e 302 302
e 303 303
e 304 304
e 305 305
e 306 306
e 307 307
e 308 308
e 309 309
e 310 310
e 311 311
e 312 312
e 313 313
e 314 314
e 315 315
e 316 316
e 317 317
e 318 318
e 319 319
e 320 320
e 321 321
e 322 322
e 323 323
e 324 324
e 325 325
e 326 326
e 327 327
e 328 328
e 329 329
e 330 330
e 331 331
e 332 332
e 333 333
e 334 334
e 335 335
e 336 336
e 337 337
e 338 338
e 339 339
e 340 340
e 341 341
e 342 342
e 343 343
e 344 344
e 345 345
e 346 346
e 347 347
e 348 348
e 349 349
e 350 350
e 351 351
e 352 352
e 353 353
e 354 354
e 355 355
e 356 356
e 357 357
e 358 358
e 359 359
e 360 360
e 361 361
e 362 362
e 363 363
e 364 364
e 365 365
e 366 366
e 367 367
e 368 368
e 369 369
e 370 370
e 371 371
e 372 372
e 373 373
e 374 374
e 375 375
e 376 376
e 377 377
e 378 378
e 379 379
e 380 380
e 381 381
e 382 382
e 383 383
e 384 384
e 385 385
e 386 386
e 387 387
e 388 388
e 389 389
e 390 390
e 391 391
e 392 392
e 393 393
e 394 394
e 395 395
e 396 396
e 397 397
e 398 398
e 399 399
e 400 400
e 401 401
e 402 402
e 403 403
e 404 404
e 405 405
e 406 406
e 407 407
e 408 408
e 409 409
e 410 410
e 411 411
e 412 412
e 413 413
e 414 414
e 415 415
e 416 416
e 417 417
e 418 418
e 419 419
e 420 420
e 421 421
e 422 422
e 423 423
e 424 424
e 425 425
e 426 426
e 427 427
e 428 428
e 429 429
e 430 430
e 431 431
e 432 432
e 433 433
e 434 434
e 435 435
e 436 436
e 437 437
e 438 438
e 439 439
e 440 440
e 441 441
e 442 442
e 443 443
e 444 444
e 445 445
e 446 446
e 447 447
e 448 448
e 449 449
e 450 450
e 451 451
e 452 452
e 453 453
e 454 454
e 455 455
e 456 456
e 457 457
e 458 458
e 459 459
e 460 460
e 461 461
e 462 462
e 463 463
e 464 464
e 465 465
e 466 466
e 467 467
e 468 468
e 469 469
e 470 470
e 471 471
e 472 472
e 473 473
e 474 474
e 475 475
e 476 476
e 477 477
e 478 478
e 479 479
e 480 480
e 481 481
e 482 482
e 483 483
e 484 484
e 485 485
e 486 486
e 487 487
e 488 488
e 489 489
e 490 490
e 491 491
e 492 492
e 493 493
e 494 494
e 495 495
e 496 496
e 497 497
e 498 498
e 499 499
e 500 500
e 501 501
e 502 502
e 503 503
e 504 504
e 505 505
e 506 506
e 507 507
e 508 508
e 509 509
e 510 510
e 511 511
e 512 512
e 513 513
e 514 514
e 515 515
e 516 516
e 517 517
e 518 518
e 519 519
e 520 520
e 521 521
e 522 522
e 523 523
e 524 524
e 525 525
e 526 526
e 527 527
e 528 528
e 529 529
e 530 530
e 531 531
e 532 532
e 533 533
e 534 534
e 535 535
e 536 536
e 537 537
e 538 538
e 539 539
e 540 540
e 541 541
e 542 542
e 543 543
e 544 544
e 545 545
e 546 546
e 547 547
e 548 548
e 549 549
e 550 550
e 551 551
e 552 552
e 553 553
e 554 554
e 555 555
e 556 556
e 557 557
e 558 558
e 559 559
e 560 560
e 561 561
e 562 562
e 563 563
e 564 564
e 565 565
e 566 566
e 567 567
e 568 568
e 569 569
e 570 570
e 571 571
e 572 572
e 573 573
e 574 574
e 575 575
e 576 576
e 577 577
e 578 578
e 579 579
e 580 580
e 581 581
e 582 582
e 583 583
e 584 584
e 585 585
e 586 586
e 587 587
e 588 588
e 589 589
e 590 590
e 591 591
e 592 592
e 593 593
e 594 594
e 595 595
e 596 596
e 597 597
e 598 598
e 599 599
e 600 600
e 601 601
e 602 602
e 603 603
e 604 604
e 605 605
e 606 606
e 607 607
e 608 608
e 609 609
e 610 610
e 611 611
e 612 612
e 613 613
e 614 614
e 615 615
e 616 616
e 617 617
e 618 618
e 619 619
e 620 620
e 621 621
e 622 622
e 623 623
e 624 624
e 625 625
e 626 626
e 627 627
e 628 628
e 629 629
e 630 630
e 631 631
e 632 632
e 633 633
e 634 634
e 635 635
e 636 636
e 637 637
e 638 638
e 639 639
e 640 640
e 641 641
e 642 642
e 643 643
e 644 644
e 645 645
e 646 646
e 647 647
e 648 648
e 649 649
e 650 650
e 651 651
e 652 652
e 653 653
e 654 654
e 655 655
e 656 656
e 657 657
e 658 658
e 659 659
e 660 660
e 661 661
e 662 662
e 663 663
e 664 664
e 665 665
e 666 666
e 667 667
e 668 668
e 669 669
e 670 670
e 671 671
e 672 672
e 673 673
e 674 674
e 675 675
e 676 676
e 677 677
e 678 678
e 679 679
e 680 680
e 681 681
e 682 682
e 683 683
e 684 684
e 685 685
e 686 686
e 687 687
e 688 688
e 689 689
e 690 690
e 691 691
e 692 692
e 693 693
e 694 694
e 695 695
e 696 696
e 697 697
e 698 698
e 699 699
e 700 700
e 701 701
e 702 702
e 703 703
e 704 704
e 705 705
e 706 706
e 707 707
e 708 708
e 709 709
e 710 710
e 711 711
e 712 712
e 713 713
e 714 714
e 715 715
e 716 716
e 717 717
e 718 718
e 719 719
e 720 720
e 721 721
e 722 722
e 723 723
e 724 724
e 725 725
e 726 726
e 727 727
e 728 728
e 729 729
e 730 730
e 731 731
e 732 732
e 733 733
e 734 734
e 735 735
e 736 736
e 737 737
e 738 738
e 739 739
e 740 740
e 741 741
e 742 742
e 743 743
e 744 744
e 745 745
e 746 746
e 747 747
e 748 748
e 749 749
e 750 750
e 751 751
e 752 752
e 753 753
e 754 754
e 755 755
e 756 756
e 757 757
e 758 758
e 759 759
e 760 760
e 761 761
e 762 762
e 763 763
e 764 764
e 765 765
e 766 766
e 767 767
e 768 768
e 769 769
e 770 770
e 771 771
e 772 772
e 773 773
e 774 774
e 775 775
e 776 776
e 777 777
e 778 778
e 779 779
e 780 780
e 781 781
e 782 782
e 783 783
e 784 784
e 785 785
e 786 786
e 787 787
e 788 788
e 789 789
e 790 790
e 791 791
e 792 792
e 793 793
e 794 794
e 795 795
e 796 796
e 797 797
e 798 798
e 799 799
e 800 800
e 801 801
e 802 802
e 803 803
e 804 804
e 805 805
e 806 806
e 807 807
e 808 808
e 809 809
e 810 810
e 811 811
e 812 812
e 813 813
e 814 814
e 815 815
e 816 816
e 817 817
e 818 818
e 819 819
e 820 820
e 821 821
e 822 822
e 823 823
e 824 824
e 825 825
e 826 826
e 827 827
e 828 828
e 829 829
e 830 830
e 831 831
e 832 832
e 833 833
e 834 834
e 835 835
e 836 836
e 837 837
e 838 838
e 839 839
e 840 840
e 841 841
e 842 842
e 843 843
e 844 844
e 845 845
e 846 846
e 847 847
e 848 848
e 849 849
e 850 850
e 851 851
e 852 852
e 853 853
e 854 854
e 855 855
e 856 856
e 857 857
e 858 858
e 859 859
e 860 860
e 861 861
e 862 862
e 863 863
e 864 864
e 865 865
e 866 866
e 867 867
e 868 868
e 869 869
e 870 870
e 871 871
e 872 872
e 873 873
e 874 874
e 875 875
e 876 876
e 877 877
e 878 878
e 879 879
e 880 880
e 881 881
e 882 882
e 883 883
e 884 884
e 885 885
e 886 886
e 887 887
e 888 888
e 889 889
e 890 890
e 891 891
e 892 892
e 893 893
e 894 894
e 895 895
e 896 896
e 897 897
e 898 898
e 899 899
e 900 900
e 901 901
e 902 902
e 903 903
e 904 904
e 905 905
e 906 906
e 907 907
e 908 908
e 909 909
e 910 910
e 911 911
e 912 912
e 913 913
e 914 914
e 915 915
e 916 916
e 917 917
e 918 918
e 919 919
e 920 920
e 921 921
e 922 922
e 923 923
e 924 924
e 925 925
e 926 926
e 927 927
e 928 928
e 929 929
e 930 930
e 931 931
e 932 932
e 933 933
e 934 934
e 935 935
e 936 936
e 937 937
e 938 938
e 939 939
e 940 940
e 941 941
e 942 942
e 943 943
e 944 944
e 945 945
e 946 946
e 947 947
e 948 948
e 949 949
e 950 950
e 951 951
e 952 952
e 953 953
e 954 954
e 955 955
e 956 956
e 957 957
e 958 958
e 959 959
e 960 960
e 961 961
e 962 962
e 963 963
e 964 964
e 965 965
e 966 966
e 967 967
e 968 968
e 969 969
e 970 970
e 971 971
e 972 972
e 973 973
e 974 974
e 975 975
e 976 976
e 977 977
e 978 978
e 979 979
e 980 980
e 981 981
e 982 982
e 983 983
e 984 984
e 985 985
e 986 986
e 987 987
e 988 988
e 989 989
e 990 990
e 991 991
e 992 992
e 993 993
e 994 994
e 995 995
e 996 996
e 997 997
e 998 998
e 999 999
e 1000 1000
e 1001 1001
e 1002 1002
e 1003 1003
e 1004 1004
e 1005 1005
e 1006 1006
e 1007 1007
e 1008 1008
e 1009 1009
e 1010 1010
e 1011 1011
e 1012 1012
e 1013 1013
e 1014 1014
e 1015 1015
e 1016 1016
e 1017 1017
e 1018 1018
e 1019 1019
e 1020 1020
e 1021 1021
e 1022 1022
e 1023 1023
e 1024 1024
e 1025 1025
e 1026 1026
e 1027 1027
e 1028 1028
e 1029 1029
e 1030 1030
e 1031 1031
e 1032 1032
e 1033 1033
e 1034 1034
e 1035 1035
e 1036 1036
e 1037 1037
e 1038 1038
e 1039 1039
e 1040 1040
e 1041 1041
e 1042 1042
e 1043 1043
e 1044 1044
e 1045 1045
e 1046 1046
e 1047 1047
e 1048 1048
e 1049 1049
e 1050 1050
e 1051 1051
e 1052 1052
e 1053 1053
e 1054 1054
e 1055 1055
e 1056 1056
e 1057 1057
e 1058 1058
e 1059 1059
e 1060 1060
e 1061 1061
e 1062 1062
e 1063 1063
e 1064 1064
e 1065 1065
e 1066 1066
e 1067 1067
e 1068 1068
e 1069 1069
e 1070 1070
e 1071 1071
e 1072 1072
e 1073 1073
e 1074 1074
e 1075 1075
e 1076 1076
e 1077 1077
e 1078 1078
e 1079 1079
e 1080 1080
e 1081 1081
e 1082 1082
e 1083 1083
e 1084 1084
e 1085 1085
e 1086 1086
e 1087 1087
e 1088 1088
e 1089 1089
e 1090 1090
e 1091 1091
e 1092 1092
e 1093 1093
e 1094 1094
e 1095 1095
e 1096 1096
e 1097 1097
e 1098 1098
e 1099 1099
e 1100 1100
e 1101 1101
e 1102 1102
e 1103 1103
e 1104 1104
e 1105 1105
e 1106 1106
e 1107 1107
e 1108 1108
e 1109 1109
e 1110 1110
e 1111 1111
e 1112 1112
e 1113 1113
e 1114 1114
e 1115 1115
e 1116 1116
e 1117 1117
e 1118 1118
e 1119 1119
e 1120 1120
e 1121 1121
e 1122 1122
e 1123 1123
e 1124 1124
e 1125 1125
e 1126 1126
e 1127 1127
e 1128 1128
e 1129 1129
e 1130 1130
e 1131 1131
e 1132 1132
e 1133 1133
e 1134 1134
e 1135 1135
e 1136 1136
e 1137 1137
e 1138 1138
e 1139 1139
e 1140 1140
e 1141 1141
e 1142 1142
e 1143 1143
e 1144 1144
e 1145 1145
e 1146 1146
e 1147 1147
e 1148 1148
e 1149 1149
e 1150 1150
e 1151 1151
e 1152 1152
e 1153 1153
e 1154 1154
e 1155 1155
e 1156 1156
e 1157 1157
e 1158 1158
e 1159 1159
e 1160 1160
e 1161 1161
e 1162 1162
e 1163 1163
e 1164 1164
e 1165 1165
e 1166 1166
e 1167 1167
e 1168 1168
e 1169 1169
e 1170 1170
e 1171 1171
e 1172 1172
e 1173 1173
e 1174 1174
e 1175 1175
e 1176 1176
e 1177 1177
e 1178 1178
e 1179 1179
e 1180 1180
e 1181 1181
e 1182 1182
e 1183 1183
e 1184 1184
e 1185 1185
e 1186 1186
e 1187 1187
e 1188 1188
e 1189 1189
e 1190 1190
e 1191 1191
e 1192 1192
e 1193 1193
e 1194 1194
e 1195 1195
e 1196 1196
e 1197 1197
e 1198 1198
e 1199 1199
e 1200 1200
e 1201 1201
e 1202 1202
e 1203 1203
e 1204 1204
e 1205 1205
e 1206 1206
e 1207 1207
e 1208 1208
e 1209 1209
e 1210 1210
e 1211 1211
e 1212 1212
e 1213 1213
e 1214 1214
e 1215 1215
e 1216 1216
e 1217 1217
e 1218 1218
e 1219 1219
e 1220 1220
e 1221 1221
e 1222 1222
e 1223 1223
e 1224 1224
e 1225 1225
e 1226 1226
e 1227 1227
e 1228 1228
e 1229 1229
e 1230 1230
e 1231 1231
e 1232 1232
e 1233 1233
e 1234 1234
e 1235 1235
e 1236 1236
e 1237 1237
e 1238 1238
e 1239 1239
e 1240 1240
e 1241 1241
e 1242 1242
e 1243 1243
e 1244 1244
e 1245 1245
e 1246 1246
e 1247 1247
e 1248 1248
e 1249 1249
e 1250 1250
e 1251 1251
e 1252 1252
e 1253 1253
e 1254 1254
e 1255 1255
e 1256 1256
e 1257 1257
e 1258 1258
e 1259 1259
e 1260 1260
e 1261 1261
e 1262 1262
e 1263 1263
e 1264 1264
e 1265 1265
e 1266 1266
e 1267 1267
e 1268 1268
e 1269 1269
e 1270 1270
e 1271 1271
e 1272 1272
e 1273 1273
e 1274 1274
e 1275 1275
e 1276 1276
e 1277 1277
e 1278 1278
e 1279 1279
e 1280 1280
e 1281 1281
e 1282 1282
e 1283 1283
e 1284 1284
e 1285 1285
e 1286 1286
e 1287 1287
e 1288 1288
e 1289 1289
e 1290 1290
e 1291 1291
e 1292 1292
e 1293 1293
e 1294 1294
e 1295 1295
e 1296 1296
e 1297 1297
e 1298 1298
e 1299 1299
e 1300 1300
e 1301 1301
e 1302 1302
e 1303 1303
e 1304 1304
e 1305 1305
e 1306 1306
e 1307 1307
e 1308 1308
e 1309 1309
e 1310 1310
e 1311 1311
e 1312 1312
e 1313 1313
e 1314 1314
e 1315 1315
e 1316 1316
e 1317 1317
e 1318 1318
e 1319 1319
e 1320 1320
e 1321 1321
e 1322 1322
e 1323 1323
e 1324 1324
e 1325 1325
e 1326 1326
e 1327 1327
e 1328 1328
e 1329 1329
e 1330 1330
e 1331 1331
e 1332 1332
e 1333 1333
e 1334 1334
e 1335 1335
e 1336 1336
e 1337 1337
e 1338 1338
e 1339 1339
e 1340 1340
e 1341 1341
e 1342 1342
e 1343 1343
e 1344 1344
e 1345 1345
e 1346 1346
e 1347 1347
e 1348 1348
e 1349 1349
e 1350 1350
e 1351 1351
e 1352 1352
e 1353 1353
e 1354 1354
e 1355 1355
e 1356 1356
e 1357 1357
e 1358 1358
e 1359 1359
e 1360 1360
e 1361 1361
e 1362 1362
e 1363 1363
e 1364 1364
e 1365 1365
e 1366 1366
e 1367 1367
e 1368 1368
e 1369 1369
e 1370 1370
e 1371 1371
e 1372 1372
e 1373 1373
e 1374 1374
e 1375 1375
e 1376 1376
e 1377 1377
e 1378 1378
e 1379 1379
e 1380 1380
e 1381 1381
e 1382 1382
e 1383 1383
e 1384 1384
e 1385 1385
e 1386 1386
e 1387 1387
e 1388 1388
e 1389 1389
e 1390 1390
e 1391 1391
e 1392 1392
e 1393 1393
e 1394 1394
e 1395 1395
e 1396 1396
e 1397 1397
e 1398 1398
e 1399 1399
e 1400 1400
e 1401 1401
e 1402 1402
e 1403 1403
e 1404 1404
e 1405 1405
e 1406 1406
e 1407 1407
e 1408 1408
e 1409 1409
e 1410 1410
e 1411 1411
e 1412 1412
e 1413 1413
e 1414 1414
e 1415 1415
e 1416 1416
e 1417 1417
e 1418 1418
e 1419 1419
e 1420 1420
e 1421 1421
e 1422 1422
e 1423 1423
e 1424 1424
e 1425 1425
e 1426 1426
e 1427 1427
e 1428 1428
e 1429 1429
e 1430 1430
e 1431 1431
e 1432 1432
e 1433 1433
e 1434 1434
e 1435 1435
e 1436 1436
e 1437 1437
e 1438 1438
e 1439 1439
e 1440 1440
e 1441 1441
e 1442 1442
e 1443 1443
e 1444 1444
e 1445 1445
e 1446 1446
e 1447 1447
e 1448 1448
e 1449 1449
e 1450 1450
e 1451 1451
e 1452 1452
e 1453 1453
e 1454 1454
e 1455 1455
e 1456 1456
e 1457 1457
e 1458 1458
e 1459 1459
e 1460 1460
e 1461 1461
e 1462 1462
e 1463 1463
e 1464 1464
e 1465 1465
e 1466 1466
e 1467 1467
e 1468 1468
e 1469 1469
e 1470 1470
e 1471 1471
e 1472 1472
e 1473 1473
e 1474 1474
e 1475 1475
e 1476 1476
e 1477 1477
e 1478 1478
e 1479 1479
e 1480 1480
e 1481 1481
e 1482 1482
e 1483 1483
e 1484 1484
e 1485 1485
e 1486 1486
e 1487 1487
e 1488 1488
e 1489 1489
e 1490 1490
e 1491 1491
e 1492 1492
e 1493 1493
e 1494 1494
e 1495 1495
e 1496 1496
e 1497 1497
e 1498 1498
e 1499 1499
e 1500 1500
e 1501 1501
e 1502 1502
e 1503 1503
e 1504 1504
e 1505 1505
e 1506 1506
e 1507 1507
e 1508 1508
e 1509 1509
e 1510 1510
e 1511 1511
e 1512 1512
e 1513 1513
e 1514 1514
e 1515 1515
e 1516 1516
e 1517 1517
e 1518 1518
e 1519 1519
e 1520 1520
e 1521 1521
e 1522 1522
e 1523 1523
e 1524 1524
e 1525 1525
e 1526 1526
e 1527 1527
e 1528 1528
e 1529 1529
e 1530 1530
e 1531 1531
e 1532 1532
e 1533 1533
e 1534 1534
e 1535 1535
e 1536 1536
e 1537 1537
e 1538 1538
e 1539 1539
e 1540 1540
e 1541 1541
e 1542 1542
e 1543 1543
e 1544 1544
e 1545 1545
e 1546 1546
e 1547 1547
e 1548 1548
e 1549 1549
e 1550 1550
e 1551 1551
e 1552 1552
e 1553 1553
e 1554 1554
e 1555 1555
e 1556 1556
e 1557 1557
e 1558 1558
e 1559 1559
e 1560 1560
e 1561 1561
e 1562 1562
e 1563 1563
e 1564 1564
e 1565 1565
e 1566 1566
e 1567 1567
e 1568 1568
e 1569 1569
e 1570 1570
e 1571 1571
e 1572 1572
e 1573 1573
e 1574 1574
e 1575 1575
e 1576 1576
e 1577 1577
e 1578 1578
e 1579 1579
e 1580 1580
e 1581 1581
e 1582 1582
e 1583 1583
e 1584 1584
e 1585 1585
e 1586 1586
e 1587 1587
e 1588 1588
e 1589 1589
e 1590 1590
e 1591 1591
e 1592 1592
e 1593 1593
e 1594 1594
e 1595 1595
e 1596 1596
e 1597 1597
e 1598 1598
e 1599 1599
e 1600 1600
e 1601 1601
e 1602 1602
e 1603 1603
e 1604 1604
e 1605 1605
e 1606 1606
e 1607 1607
e 1608 1608
e 1609 1609
e 1610 1610
e 1611 1611
e 1612 1612
e 1613 1613
e 1614 1614
e 1615 1615
e 1616 1616
e 1617 1617
e 1618 1618
e 1619 1619
e 1620 1620
e 1621 1621
e 1622 1622
e 1623 1623
e 1624 1624
e 1625 1625
e 1626 1626
e 1627 1627
e 1628 1628
e 1629 1629
e 1630 1630
e 1631 1631
e 1632 1632
e 1633 1633
e 1634 1634
e 1635 1635
e 1636 1636
e 1637 1637
e 1638 1638
e 1639 1639
e 1640 1640
e 1641 1641
e 1642 1642
e 1643 1643
e 1644 1644
e 1645 1645
e 1646 1646
e 1647 1647
e 1648 1648
e 1649 1649
e 1650 1650
e 1651 1651
e 1652 1652
e 1653 1653
e 1654 1654
e 1655 1655
e 1656 1656
e 1657 1657
e 1658 1658
e 1659 1659
e 1660 1660
e 1661 1661
e 1662 1662
e 1663 1663
e 1664 1664
e 1665 1665
e 1666 1666
e 1667 1667
e 1668 1668
e 1669 1669
e 1670 1670
e 1671 1671
e 1672 1672
e 1673 1673
e 1674 1674
e 1675 1675
e 1676 1676
e 1677 1677
e 1678 1678
e 1679 1679
e 1680 1680
e 1681 1681
e 1682 1682
e 1683 1683
e 1684 1684
e 1685 1685
e 1686 1686
e 1687 1687
e 1688 1688
e 1689 1689
e 1690 1690
e 1691 1691
e 1692 1692
e 1693 1693
e 1694 1694
e 1695 1695
e 1696 1696
e 1697 1697
e 1698 1698
e 1699 1699
e 1700 1700
e 1701 1701
e 1702 1702
e 1703 1703
e 1704 1704
e 1705 1705
e 1706 1706
e 1707 1707
e 1708 1708
e 1709 1709
e 1710 1710
e 1711 1711
e 1712 1712
e 1713 1713
e 1714 1714
e 1715 1715
e 1716 1716
e 1717 1717
e 1718 1718
e 1719 1719
e 1720 1720
e 1721 1721
e 1722 1722
e 1723 1723
e 1724 1724
e 1725 1725
e 1726 1726
e 1727 1727
e 1728 1728
e 1729 1729
e 1730 1730
e 1731 1731
e 1732 1732
e 1733 1733
e 1734 1734
e 1735 1735
e 1736 1736
e 1737 1737
e 1738 1738
e 1739 1739
e 1740 1740
e 1741 1741
e 1742 1742
e 1743 1743
e 1744 1744
e 1745 1745
e 1746 1746
e 1747 1747
e 1748 1748
e 1749 1749
e 1750 1750
e 1751 1751
e 1752 1752
e 1753 1753
e 1754 1754
e 1755 1755
e 1756 1756
e 1757 1757
e 1758 1758
e 1759 1759
e 1760 1760
e 1761 1761
e 1762 1762
e 1763 1763
e 1764 1764
e 1765 1765
e 1766 1766
e 1767 1767
e 1768 1768
e 1769 1769
e 1770 1770
e 1771 1771
e 1772 1772
e 1773 1773
e 1774 1774
e 1775 1775
e 1776 1776
e 1777 1777
e 1778 1778
e 1779 1779
e 1780 1780
e 1781 1781
e 1782 1782
e 1783 1783
e 1784 1784
e 1785 1785
e 1786 1786
e 1787 1787
e 1788 1788
e 1789 1789
e 1790 1790
e 1791 1791
e 1792 1792
e 1793 1793
e 1794 1794
e 1795 1795
e 1796 1796
e 1797 1797
e 1798 1798
e 1799 1799
e 1800 1800
e 1801 1801
e 1802 1802
e 1803 1803
e 1804 1804
e 1805 1805
e 1806 1806
e 1807 1807
e 1808 1808
e 1809 1809
e 1810 1810
e 1811 1811
e 1812 1812
e 1813 1813
e 1814 1814
e 1815 1815
e 1816 1816
e 1817 1817
e 1818 1818
e 1819 1819
e 1820 1820
e 1821 1821
e 1822 1822
e 1823 1823
e 1824 1824
e 1825 1825
e 1826 1826
e 1827 1827
e 1828 1828
e 1829 1829
e 1830 1830
e 1831 1831
e 1832 1832
e 1833 1833
e 1834 1834
e 1835 1835
e 1836 1836
e 1837 1837
e 1838 1838
e 1839 1839
e 1840 1840
e 1841 1841
e 1842 1842
e 1843 1843
e 1844 1844
e 1845 1845
e 1846 1846
e 1847 1847
e 1848 1848
e 1849 1849
e 1850 1850
e 1851 1851
e 1852 1852
e 1853 1853
e 1854 1854
e 1855 1855
e 1856 1856
e 1857 1857
e 1858 1858
e 1859 1859
e 1860 1860
e 1861 1861
e 1862 1862
e 1863 1863
e 1864 1864
e 1865 1865
e 1866 1866
e 1867 1867
e 1868 1868
e 1869 1869
e 1870 1870
e 1871 1871
e 1872 1872
e 1873 1873
e 1874 1874
e 1875 1875
e 1876 1876
e 1877 1877
e 1878 1878
e 1879 1879
e 1880 1880
e 1881 1881
e 1882 1882
e 1883 1883
e 1884 1884
e 1885 1885
e 1886 1886
e 1887 1887
e 1888 1888
e 1889 1889
e 1890 1890
e 1891 1891
e 1892 1892
e 1893 1893
e 1894 1894
e 1895 1895
e 1896 1896
e 1897 1897
e 1898 1898
e 1899 1899
e 1900 1900
e 1901 1901
e 1902 1902
e 1903 1903
e 1904 1904
e 1905 1905
e 1906 1906
e 1907 1907
e 1908 1908
e 1909 1909
e 1910 1910
e 1911 1911
e 1912 1912
e 1913 1913
e 1914 1914
e 1915 1915
e 1916 1916
e 1917 1917
e 1918 1918
e 1919 1919
e 1920 1920
e 1921 1921
e 1922 1922
